c Random CNF formula
p cnf 40 54
1 2 3 4 0
5 6 7 8 0
9 10 11 12 0
13 14 15 16 0
17 18 19 20 0
21 22 23 24 0
25 26 27 28 0
29 30 31 32 0
33 34 35 36 0
37 38 39 40 0
-1 -21 0
-2 -22 0
-3 -23 0
-4 -24 0
-5 -25 0
-6 -26 0
-7 -27 0
-8 -28 0
-5 -33 0
-6 -34 0
-7 -35 0
-8 -36 0
-5 -37 0
-6 -38 0
-7 -39 0
-8 -40 0
-9 -13 0
-10 -14 0
-11 -15 0
-12 -16 0
-9 -17 0
-10 -18 0
-11 -19 0
-12 -20 0
-13 -37 0
-14 -38 0
-15 -39 0
-16 -40 0
-17 -29 0
-18 -30 0
-19 -31 0
-20 -32 0
-21 -25 0
-22 -26 0
-23 -27 0
-24 -28 0
-25 -37 0
-26 -38 0
-27 -39 0
-28 -40 0
-29 -33 0
-30 -34 0
-31 -35 0
-32 -36 0
